QBPP_HJ*_45_025_06_1
45 396 1
18 38 21 17 37 38 35 29 8 21 12 22 45 1 17 23 14 12 23 39 15 3 14 45 18 47 2 3 21 33 16 39 34 19 50 38 42 23 39 49 22 25 45 38 37
    0    0    0    0    0  -24    0   -4    0    0    0    0    0    0    0   49    0    6    9    0    0    0   13  -31    0  -16    0    0  -28    0    8    0  -18    0    0   47   -5   48    0    0    0   30    0    0    0
    0    0    0   14    0    0    0    0    0    0    0    0    0    0    0    0    0  -32    0  -17  -42   32    0    0    0    0    0    0    0    0    0    0    0    0    0    0    0    0    0  -47  -40    0    0    0   12
    0    0    0  -14    0  -26    0    0    0    0   -5    0  -50    0    0    0   50    0    0    0    0    0    0    0    0    0    0    0   12    0   23    0    0  -42    0   14    0    0    0    0    0    0    0  -37    0
    0   14  -14    0    0    0    0    0    0    0   -9  -38  -16    0    0    0  -20    0    0   45    0    0    0    0   21    0    0    0    0    0    0    3    0    0    0    0    0    0   11    0    0   21    0    0    0
    0    0    0    0    0    0    0   -4   25    0   40    0    0    0    0    0    0   38    0    0    0  -16    0    0    0    0    0    0    0    0    0   11    0    1    0    0    0    0    0    0    0    0    0    0    0
  -24    0  -26    0    0    0    0    0    0    0    0    0    0    0    0  -48  -31    0    0    0    0    0    0    0   25    0    0    0    0    0   -9    0    0    0    0    0  -14    0    0    0    0    0    0    0    0
    0    0    0    0    0    0    0    0    0   -5    0  -11  -40  -22   25    0    0    0    0    0    0    0  -22    0    0    0    0    0   40    0    0    0    0    0    0    0    0  -37    0    0    0  -37    0    0    0
   -4    0    0    0   -4    0    0    0    0   35    0   -9    0    0   16    0    0    0    0    0    0    0    0    0    0    0    0    0  -48   39  -35    0    0    0    0    0    0    0    0    0   -5    0   49    0    0
    0    0    0    0   25    0    0    0    0    0    0    0    0    0  -14    0    0   29   47    1    0   -2    0   45    0    0  -33    0    0    0    0    0    0    0    0    0  -21    0    9    0   48    0    0    0    0
    0    0    0    0    0    0   -5   35    0    0    0    0    0  -17    0    0    0    0    0    0    0    0   40   12    0    0    0  -40  -12    0    0    0    0    0   39    0    0   -7    0    0    0    0    0  -21    0
    0    0   -5   -9   40    0    0    0    0    0    0    0   28   45    0    0    0   45    0    0    0    0    0    0    0    0    0    0    0    0    0    0  -42    0    0    0    0   38    0    0    0    0    0    0    0
    0    0    0  -38    0    0  -11   -9    0    0    0    0    0    0   11    0    0    0    0    0    0    0    0   31    0    0    0   35   38   33    0  -35  -39    0    0    0    0    0    0  -36    0    0    0    0    0
    0    0  -50  -16    0    0  -40    0    0    0   28    0    0    0    0    0    0   31    0    0    0    0    0    0    0    0  -19    0    0    0    0    0    0    0    0    0   50    0    0  -14  -49    0    0    0   34
    0    0    0    0    0    0  -22    0    0  -17   45    0    0    0    0    0    0    0  -39    0    0    0   -1    0    0    0  -33   33    0    0    0    0    0  -48    0   46    0   40    0    0    0    0    0    0    0
    0    0    0    0    0    0   25   16  -14    0    0   11    0    0    0    0    0    0    0    0    0    0   30  -27    0    0    0    0    0    0  -32    0    0   37  -11    0    0    0    0    0    0    0    0    7    0
   49    0    0    0    0  -48    0    0    0    0    0    0    0    0    0    0    0    0    0    0    0    0  -12    0    0    0  -20    0  -38  -20   -7  -11    0    0   50    3   43   12    0   48   17   -1   35    0    0
    0    0   50  -20    0  -31    0    0    0    0    0    0    0    0    0    0    0    0   27    0    0    0    0    0    0    0    0    0    0    0    0   11   42    0   -3  -50    0   -7    0    0    0   18    0    0    0
    6  -32    0    0   38    0    0    0   29    0   45    0   31    0    0    0    0    0    0    0  -24    0    9  -46   -3   50  -31   22    0    0    0    0    0   39    0    0    0    0    0    0   34    0    0    3    0
    9    0    0    0    0    0    0    0   47    0    0    0    0  -39    0    0   27    0    0    0    0    0    0    0   -1   16  -43    0  -10    0    0    0    0    0    0    0    0    0  -27    0    0  -45    0    0    0
    0  -17    0   45    0    0    0    0    1    0    0    0    0    0    0    0    0    0    0    0    0    0    0    0    0    0    0    0    0   39    0    0    0    0    0    0    0  -44    0    0  -36  -33   49    0    0
    0  -42    0    0    0    0    0    0    0    0    0    0    0    0    0    0    0  -24    0    0    0  -39    0   26    0    0    0    0    0    0   15   31    0   47  -32    0    0    0    0    0    0  -26    0   45    1
    0   32    0    0  -16    0    0    0   -2    0    0    0    0    0    0    0    0    0    0    0  -39    0    0   26    0    0    0   25    0    0    0    0    0    0    0    0    0    0    0    0  -40    0    0    0    0
   13    0    0    0    0    0  -22    0    0   40    0    0    0   -1   30  -12    0    9    0    0    0    0    0    6    0    0    0    0    0    0    0    0    0    0    0    0   -8    0   12  -17    0   46    0    0    0
  -31    0    0    0    0    0    0    0   45   12    0   31    0    0  -27    0    0  -46    0    0   26   26    6    0    0    0    0    0    0    0    0   12    0    0    0    0    0  -15    0    0    0    0    0    0    0
    0    0    0   21    0   25    0    0    0    0    0    0    0    0    0    0    0   -3   -1    0    0    0    0    0    0    0    0    0    0    0    0    0    2    0  -17   50  -35    0  -21   19    0    0  -16    0    0
  -16    0    0    0    0    0    0    0    0    0    0    0    0    0    0    0    0   50   16    0    0    0    0    0    0    0  -11    0    0  -35    0    0   50    0    0    0    0    0    0    0    0    0    0    0    0
    0    0    0    0    0    0    0    0  -33    0    0    0  -19  -33    0  -20    0  -31  -43    0    0    0    0    0    0  -11    0    0    0    0    0    0    0    0  -50   45    0    7    0    0    0    0    0   29   23
    0    0    0    0    0    0    0    0    0  -40    0   35    0   33    0    0    0   22    0    0    0   25    0    0    0    0    0    0    0    0    0    0    0    0    0  -47    0    0    0    0    0    0    0   25    0
  -28    0   12    0    0    0   40  -48    0  -12    0   38    0    0    0  -38    0    0  -10    0    0    0    0    0    0    0    0    0    0    0    0  -46    0    0    0    0    0    0    0    0    0  -41  -49    0  -36
    0    0    0    0    0    0    0   39    0    0    0   33    0    0    0  -20    0    0    0   39    0    0    0    0    0  -35    0    0    0    0  -47   25    0   17   18    0    0   13    0    0    0   32    0    0    0
    8    0   23    0    0   -9    0  -35    0    0    0    0    0    0  -32   -7    0    0    0    0   15    0    0    0    0    0    0    0    0  -47    0    0    0  -11    0    0    0    0    0    0  -33    0   14  -42    0
    0    0    0    3   11    0    0    0    0    0    0  -35    0    0    0  -11   11    0    0    0   31    0    0   12    0    0    0    0  -46   25    0    0    0  -35    0    0    0    0    0    0    0    0    0    0    0
  -18    0    0    0    0    0    0    0    0    0  -42  -39    0    0    0    0   42    0    0    0    0    0    0    0    2   50    0    0    0    0    0    0    0    0    0    0    0    0    0  -47    0    0    0  -38   -4
    0    0  -42    0    1    0    0    0    0    0    0    0    0  -48   37    0    0   39    0    0   47    0    0    0    0    0    0    0    0   17  -11  -35    0    0    0    3    0    0    0    0  -44    0   32    0    0
    0    0    0    0    0    0    0    0    0   39    0    0    0    0  -11   50   -3    0    0    0  -32    0    0    0  -17    0  -50    0    0   18    0    0    0    0    0    0  -40    0    0    0    0   -9    0  -17    0
   47    0   14    0    0    0    0    0    0    0    0    0    0   46    0    3  -50    0    0    0    0    0    0    0   50    0   45  -47    0    0    0    0    0    3    0    0    0    0    0    0    0    0    0   41   10
   -5    0    0    0    0  -14    0    0  -21    0    0    0   50    0    0   43    0    0    0    0    0    0   -8    0  -35    0    0    0    0    0    0    0    0    0  -40    0    0    0    0   30    0    0   -2    0  -39
   48    0    0    0    0    0  -37    0    0   -7   38    0    0   40    0   12   -7    0    0  -44    0    0    0  -15    0    0    7    0    0   13    0    0    0    0    0    0    0    0    2    0   32   -5   41    0    0
    0    0    0   11    0    0    0    0    9    0    0    0    0    0    0    0    0    0  -27    0    0    0   12    0  -21    0    0    0    0    0    0    0    0    0    0    0    0    2    0    0    0    0    0    0    0
    0  -47    0    0    0    0    0    0    0    0    0  -36  -14    0    0   48    0    0    0    0    0    0  -17    0   19    0    0    0    0    0    0    0  -47    0    0    0   30    0    0    0    0    0    0    0    0
    0  -40    0    0    0    0    0   -5   48    0    0    0  -49    0    0   17    0   34    0  -36    0  -40    0    0    0    0    0    0    0    0  -33    0    0  -44    0    0    0   32    0    0    0    0    0    1    0
   30    0    0   21    0    0  -37    0    0    0    0    0    0    0    0   -1   18    0  -45  -33  -26    0   46    0    0    0    0    0  -41   32    0    0    0    0   -9    0    0   -5    0    0    0    0    0    0    0
    0    0    0    0    0    0    0   49    0    0    0    0    0    0    0   35    0    0    0   49    0    0    0    0  -16    0    0    0  -49    0   14    0    0   32    0    0   -2   41    0    0    0    0    0    0    0
    0    0  -37    0    0    0    0    0    0  -21    0    0    0    0    7    0    0    3    0    0   45    0    0    0    0    0   29   25    0    0  -42    0  -38    0  -17   41    0    0    0    0    1    0    0    0   44
    0   12    0    0    0    0    0    0    0    0    0    0   34    0    0    0    0    0    0    0    1    0    0    0    0    0   23    0  -36    0    0    0   -4    0    0   10  -39    0    0    0    0    0    0   44    0
